3
50
12881
[[744,690,932,404,918,475,345,411,796,107,421,186,354,374,473,712,423,504,532,369,797,498,374,857,308,387,467,296,426,286,884,121,121,844,869,913,153, 78,716,694,881, 35,  0,110,108,149,578,719,399,673],
 [603, 78,229,410, 67,843,164, 60,476,694, 51,119,464,533,142,593,123,623,150,153,474,792,972,994,941,226,443,365,734,113,252,474,174, 15,516,301,501,149,778,604,570,510,137,197,473,597,416,250,699, 67],
 [927,986,815,207, 11,615, 18,844,454,134, 65,178,760,529, 65,186,918,213,343, 22,499,990,230,489,452,387,461,379,244,638,447,460,183,800,702,416,705,131,354,999,677,589,825,110,573,240,140,160,535,443]]
[718,649,889,  7,863,976,371,173,103,532,179,159,702, 44,696,884,248,856,612,153,768,805,608,249,880,995,829,480,469,487,709,116,455, 80,869,361,689,558,372,922, 57,344, 75,840,299,526,621,350,818,317]